% seed = 0

mint = 11;
% maxt = 54;

nActs = 22;
dur = [0,4,1,1,2,2,5,1,3,2,4,1,3,3,1,4,2,3,3,5,4,0];

nSkills = 3;
sreq = [| 0,0,0,
	| 0,3,1,
	| 0,1,3,
	| 1,0,0,
	| 3,3,0,
	| 3,0,1,
	| 3,2,1,
	| 0,1,1,
	| 1,2,0,
	| 0,2,0,
	| 2,0,0,
	| 1,1,3,
	| 1,0,0,
	| 1,3,0,
	| 0,0,2,
	| 2,2,0,
	| 2,3,0,
	| 2,0,2,
	| 3,0,2,
	| 0,0,1,
	| 2,0,1,
	| 0,0,0, |];

% SumOfsreq = 68;

nResources = 11;
mastery = [| true,true,false,
	| false,true,false,
	| false,true,false,
	| true,true,true,
	| false,false,true,
	| false,false,true,
	| true,false,true,
	| true,false,false,
	| true,false,false,
	| false,true,false,
	| false,true,false, |];

nPrecs = 54;
pred = [1,1,1,1,1,1,1,1,1,1,1,1,1,1,1,1,1,1,1,1,2,2,3,3,4,4,4,5,5,5,6,6,7,7,8,9,9,9,10,10,11,12,12,13,13,14,15,16,17,18,18,19,20,21];
succ = [2,3,4,5,6,7,8,9,10,11,12,13,14,15,16,17,18,19,20,21,4,22,20,22,12,14,22,11,22,8,22,16,10,22,22,19,20,22,12,22,22,14,22,17,22,22,22,22,22,19,22,22,22,22];

nUnrels = 171;
unpred = [2,2,2,2,2,2,2,2,2,2,2,2,2,2,2,2,3,3,3,3,3,3,3,3,3,3,3,3,3,3,3,3,3,4,4,4,4,4,4,4,4,4,4,4,4,4,4,4,5,5,5,5,5,5,5,5,5,5,5,5,5,5,6,6,6,6,6,6,6,6,6,6,6,6,6,6,7,7,7,7,7,7,7,7,7,7,7,8,8,8,8,8,8,8,8,8,8,8,8,8,9,9,9,9,9,9,9,9,9,9,10,10,10,10,10,10,10,10,10,11,11,11,11,11,11,11,11,11,11,12,12,12,12,12,12,12,12,13,13,13,13,13,13,13,14,14,14,14,14,14,14,15,15,15,15,15,15,16,16,16,16,16,17,17,17,17,18,18,19,19,20];
unsucc = [3,5,6,7,8,9,10,11,13,15,16,17,18,19,20,21,4,5,6,7,8,9,10,11,12,13,14,15,16,17,18,19,21,5,6,7,8,9,10,11,13,15,16,17,18,19,20,21,6,7,9,10,12,13,14,15,16,17,18,19,20,21,7,8,9,10,11,12,13,14,15,17,18,19,20,21,8,9,11,13,15,16,17,18,19,20,21,9,10,11,12,13,14,15,16,17,18,19,20,21,10,11,12,13,14,15,16,17,18,21,11,13,15,16,17,18,19,20,21,12,13,14,15,16,17,18,19,20,21,13,15,16,17,18,19,20,21,14,15,16,18,19,20,21,15,16,17,18,19,20,21,16,17,18,19,20,21,17,18,19,20,21,18,19,20,21,20,21,20,21,21];

USEFUL_RES = [{},
	{1,2,3,4,5,6,7,10,11},
	{1,2,3,4,5,6,7,10,11},
	{1,4,7,8,9},
	{1,2,3,4,7,8,9,10,11},
	{1,4,5,6,7,8,9},
	{1,2,3,4,5,6,7,8,9,10,11},
	{1,2,3,4,5,6,7,10,11},
	{1,2,3,4,7,8,9,10,11},
	{1,2,3,4,10,11},
	{1,4,7,8,9},
	{1,2,3,4,5,6,7,8,9,10,11},
	{1,4,7,8,9},
	{1,2,3,4,7,8,9,10,11},
	{4,5,6,7},
	{1,2,3,4,7,8,9,10,11},
	{1,2,3,4,7,8,9,10,11},
	{1,4,5,6,7,8,9},
	{1,4,5,6,7,8,9},
	{4,5,6,7},
	{1,4,5,6,7,8,9},
	{}];

POTENTIAL_ACT = [{2,3,4,5,6,7,8,9,10,11,12,13,14,16,17,18,19,21},
	{2,3,5,7,8,9,10,12,14,16,17},
	{2,3,5,7,8,9,10,12,14,16,17},
	{2,3,4,5,6,7,8,9,10,11,12,13,14,15,16,17,18,19,20,21},
	{2,3,6,7,8,12,15,18,19,20,21},
	{2,3,6,7,8,12,15,18,19,20,21},
	{2,3,4,5,6,7,8,9,11,12,13,14,15,16,17,18,19,20,21},
	{4,5,6,7,9,11,12,13,14,16,17,18,19,21},
	{4,5,6,7,9,11,12,13,14,16,17,18,19,21},
	{2,3,5,7,8,9,10,12,14,16,17},
	{2,3,5,7,8,9,10,12,14,16,17}];
